Route #1: 0 1 52 35 4 41 25 0
Route #2: 0 13 33 27 16 42 29 45 24 53 0
Route #3: 0 6 47 26 21 48 32 36 3 0
Route #4: 0 49 11 55 20 31 30 54 34 2 19 17 51 15 0
Route #5: 0 10 44 14 38 22 50 12 40 28 0
Route #6: 0 18 46 8 5 9 23 43 0
Route #7: 0 7 37 39 0
Cost 903:
